NAME : ar9152
COMMENT : 9152 locations in Argentina
COMMENT : Derived from National Imagery and Mapping Agency data
TYPE : TSP
DIMENSION : 15
EDGE_WEIGHT_TYPE : EUC_2D
NODE_COORD_SECTION
1 39.9199 32.8543
2 36266.6667 62550.0000
3 34600.0000 58633.3333
4 51650.0000 72300.0000
5 37800.0000 67683.3333
6 35428.0556 60174.1667
7 34583.3333 68550.0000
8 27383.3333 54766.6667
9 34533.3333 63166.6667
10 23766.6667 64683.3333
11 32383.3333 59666.6667
12 32383.3333 59666.6667
13 25416.6667 65533.3333
14 31383.3333 64183.3333
15 37916.6667 62933.3333
EOF